(set-logic QF_LRA)
(declare-fun X0 () Real )
(declare-fun Y0 () Real )
(declare-fun X1 () Real )
(declare-fun Y1 () Real )
(declare-fun X2 () Real )
(declare-fun Y2 () Real )
(declare-fun X3 () Real )
(declare-fun Y3 () Real )
(declare-fun X4 () Real )
(declare-fun Y4 () Real )
(declare-fun X5 () Real )
(declare-fun Y5 () Real )
(declare-fun Z () Real )
(assert ( and  
( or ( <= ( + X0 3 ) X1 )  ( <= ( + X1 17 ) X0 )  ( <= ( + Y0 52 ) Y1 )  ( <= ( + Y1 52 ) Y0 )  )
( or ( <= ( + X0 3 ) X2 )  ( <= ( + X2 4 ) X0 )  ( <= ( + Y0 52 ) Y2 )  ( <= ( + Y2 96 ) Y0 )  )
( or ( <= ( + X0 3 ) X3 )  ( <= ( + X3 87 ) X0 )  ( <= ( + Y0 52 ) Y3 )  ( <= ( + Y3 46 ) Y0 )  )
( or ( <= ( + X0 3 ) X4 )  ( <= ( + X4 2 ) X0 )  ( <= ( + Y0 52 ) Y4 )  ( <= ( + Y4 91 ) Y0 )  )
( or ( <= ( + X0 3 ) X5 )  ( <= ( + X5 37 ) X0 )  ( <= ( + Y0 52 ) Y5 )  ( <= ( + Y5 53 ) Y0 )  )
( or ( <= ( + X1 17 ) X2 )  ( <= ( + X2 4 ) X1 )  ( <= ( + Y1 52 ) Y2 )  ( <= ( + Y2 96 ) Y1 )  )
( or ( <= ( + X1 17 ) X3 )  ( <= ( + X3 87 ) X1 )  ( <= ( + Y1 52 ) Y3 )  ( <= ( + Y3 46 ) Y1 )  )
( or ( <= ( + X1 17 ) X4 )  ( <= ( + X4 2 ) X1 )  ( <= ( + Y1 52 ) Y4 )  ( <= ( + Y4 91 ) Y1 )  )
( or ( <= ( + X1 17 ) X5 )  ( <= ( + X5 37 ) X1 )  ( <= ( + Y1 52 ) Y5 )  ( <= ( + Y5 53 ) Y1 )  )
( or ( <= ( + X2 4 ) X3 )  ( <= ( + X3 87 ) X2 )  ( <= ( + Y2 96 ) Y3 )  ( <= ( + Y3 46 ) Y2 )  )
( or ( <= ( + X2 4 ) X4 )  ( <= ( + X4 2 ) X2 )  ( <= ( + Y2 96 ) Y4 )  ( <= ( + Y4 91 ) Y2 )  )
( or ( <= ( + X2 4 ) X5 )  ( <= ( + X5 37 ) X2 )  ( <= ( + Y2 96 ) Y5 )  ( <= ( + Y5 53 ) Y2 )  )
( or ( <= ( + X3 87 ) X4 )  ( <= ( + X4 2 ) X3 )  ( <= ( + Y3 46 ) Y4 )  ( <= ( + Y4 91 ) Y3 )  )
( or ( <= ( + X3 87 ) X5 )  ( <= ( + X5 37 ) X3 )  ( <= ( + Y3 46 ) Y5 )  ( <= ( + Y5 53 ) Y3 )  )
( or ( <= ( + X4 2 ) X5 )  ( <= ( + X5 37 ) X4 )  ( <= ( + Y4 91 ) Y5 )  ( <= ( + Y5 53 ) Y4 )  )
( >= X0 0)
( <= ( + X0 3) Z)
( >= Y0 0)
( <= ( + Y0 52 ) 122)
( >= X1 0)
( <= ( + X1 17) Z)
( >= Y1 0)
( <= ( + Y1 52 ) 122)
( >= X2 0)
( <= ( + X2 4) Z)
( >= Y2 0)
( <= ( + Y2 96 ) 122)
( >= X3 0)
( <= ( + X3 87) Z)
( >= Y3 0)
( <= ( + Y3 46 ) 122)
( >= X4 0)
( <= ( + X4 2) Z)
( >= Y4 0)
( <= ( + Y4 91 ) 122)
( >= X5 0)
( <= ( + X5 37) Z)
( >= Y5 0)
( <= ( + Y5 53 ) 122)
) )
(minimize Z)
(check-sat)
